(declare-const sin Real)
(declare-const p9_15 Real)
(declare-const income Real)
(declare-const p13_16 Real)
(declare-const p5_05 Real)
(declare-const special Real)
(declare-const p11_16 Real)
(declare-const p12_16 Real)
(declare-const fee_bl Real)
(assert (= p5_05 (* 0.0505 (ite (> income 52886) 52886 income))))
(assert (= p9_15 (ite (> income 52886) (* 0.0915 (- (ite (> income 105775) 105775 income) 52886)) 0)))
(assert (= p11_16 (ite (> income 105775) (* 0.1116 (- (ite (> income 150000) 150000 income) 105775)) 0)))
(assert (= p12_16 (ite (> income 150000) (* 0.1216 (- (ite (> income 220000) 220000 income) 150000)) 0)))
(assert (= p13_16 (ite (> income 220000) (* 0.1316 (- income 220000)) 0)))
(assert (= special (ite (>= sin 900000000) 0 1)))
(assert (= fee_bl (* special (+ (+ (+ (+ p5_05 p9_15) p11_16) p12_16) p13_16))))